
  32    4
  10   10   10   10

   0   0   0   0   0   6 2 3 4 5 6 7 
   5  10  10  10  10   4 11 10 9 8 
   7  10  10  10  10   4 11 10 9 8 
   5  10  10  10  10   4 11 10 9 8 
   1  10  10  10  10   3 11 10 9 
   4  10  10  10  10   3 11 10 8 
   7  10  10  10  10   2 9 8 
   6  10  10  10  10   4 15 14 13 12 
   3  10  10  10  10   3 15 13 12 
   7  10  10  10  10   3 15 13 12 
   9  10  10  10  10   3 15 14 12 
   3  10  10  10  10   8 23 22 21 20 19 18 17 16 
   8  10  10  10  10   7 23 22 21 20 19 17 16 
   1  10  10  10  10   7 22 21 20 19 18 17 16 
   7  10  10  10  10   6 22 21 20 18 17 16 
   2  10  10  10  10   3 26 25 24 
   3  10  10  10  10   3 26 25 24 
   6  10  10  10  10   3 26 25 24 
   8  10  10  10  10   3 26 25 24 
   7  10  10  10  10   2 26 24 
   8  10  10  10  10   2 25 24 
   5  10  10  10  10   2 25 24 
   4  10  10  10  10   2 26 24 
  10  10  10  10  10   5 31 30 29 28 27 
   7  10  10  10  10   5 31 30 29 28 27 
   7  10  10  10  10   3 29 28 27 
   4  10  10  10  10   1 32
   1  10  10  10  10   1 32
   4  10  10  10  10   1 32
   7  10  10  10  10   1 32
   5  10  10  10  10   1 32
   0   0   0   0   0   0 
